Geographic Exponential Decay
20 308 201 55 60 208 37 123 236 4 149 282 150 52 315 303 144 92 291 47 193
p edge 320 1303
e 0 54 4.0
e 0 234 4.0
e 0 44 1.0
e 1 234 8.0
e 1 75 3.0
e 1 231 12.0
e 1 103 3.0
e 1 236 10.0
e 2 65 7.0
e 2 275 3.0
e 3 164 5.0
e 3 80 1.0
e 4 318 85.0
e 4 191 84.0
e 4 151 76.0
e 4 132 16.0
e 4 86 15.0
e 4 94 62.0
e 4 50 1.0
e 4 56 95.0
e 4 129 63.0
e 4 53 74.0
e 4 68 43.0
e 4 40 92.0
e 4 97 63.0
e 4 286 81.0
e 4 166 81.0
e 4 176 98.0
e 4 1 72.0
e 4 139 88.0
e 4 277 21.0
e 4 63 12.0
e 4 133 36.0
e 4 294 63.0
e 4 135 100.0
e 4 154 85.0
e 4 31 20.0
e 4 234 63.0
e 4 266 19.0
e 4 302 1.0
e 4 87 18.0
e 4 125 13.0
e 4 134 66.0
e 4 150 9.0
e 4 192 2.0
e 4 47 32.0
e 4 25 2.0
e 4 237 88.0
e 4 210 72.0
e 5 262 1.0
e 5 129 1.0
e 6 99 1.0
e 6 264 1.0
e 6 171 1.0
e 7 194 1.0
e 7 48 1.0
e 8 15 4.0
e 8 90 4.0
e 8 52 25.0
e 9 6 3.0
e 9 236 20.0
e 10 91 1.0
e 10 182 1.0
e 11 243 6.0
e 11 160 22.0
e 11 304 6.0
e 11 283 24.0
e 11 309 18.0
e 11 317 22.0
e 11 302 24.0
e 11 52 35.0
e 11 79 24.0
e 11 44 5.0
e 12 33 2.0
e 12 93 1.0
e 13 88 11.0
e 13 4 57.0
e 14 5 2.0
e 14 122 4.0
e 15 234 3.0
e 15 170 12.0
e 16 7 5.0
e 16 125 4.0
e 16 124 1.0
e 17 288 1.0
e 17 112 2.0
e 18 154 1.0
e 18 149 42.0
e 19 156 16.0
e 19 182 3.0
e 19 220 40.0
e 19 197 38.0
e 19 215 25.0
e 19 88 9.0
e 19 237 20.0
e 19 175 16.0
e 19 234 24.0
e 19 316 11.0
e 19 38 42.0
e 19 301 48.0
e 19 273 22.0
e 19 296 48.0
e 19 57 20.0
e 19 48 1.0
e 19 47 33.0
e 19 183 15.0
e 19 125 33.0
e 20 233 2.0
e 20 112 2.0
e 21 1 12.0
e 21 75 2.0
e 21 36 2.0
e 22 109 9.0
e 22 206 3.0
e 22 288 11.0
e 22 318 6.0
e 22 276 6.0
e 23 167 2.0
e 23 50 10.0
e 24 57 4.0
e 24 55 100.0
e 25 95 1.0
e 26 309 6.0
e 26 0 3.0
e 26 305 16.0
e 26 310 18.0
e 26 198 8.0
e 26 105 16.0
e 26 213 12.0
e 26 42 21.0
e 26 146 3.0
e 26 317 24.0
e 27 286 9.0
e 27 236 38.0
e 27 31 24.0
e 27 68 46.0
e 27 60 42.0
e 27 149 33.0
e 27 312 2.0
e 27 106 38.0
e 27 150 34.0
e 27 30 44.0
e 27 276 7.0
e 27 227 1.0
e 27 61 27.0
e 27 3 31.0
e 27 118 23.0
e 27 126 26.0
e 27 33 43.0
e 27 43 43.0
e 27 74 41.0
e 28 168 3.0
e 28 31 4.0
e 29 217 1.0
e 29 191 2.0
e 30 121 1.0
e 32 167 1.0
e 32 181 1.0
e 33 111 2.0
e 34 317 4.0
e 34 20 3.0
e 34 297 34.0
e 35 119 1.0
e 35 175 4.0
e 36 253 12.0
e 36 22 3.0
e 36 123 9.0
e 36 136 10.0
e 37 102 60.0
e 37 70 78.0
e 37 314 85.0
e 37 162 54.0
e 37 276 37.0
e 37 168 16.0
e 37 169 9.0
e 37 10 58.0
e 37 247 4.0
e 37 155 90.0
e 37 124 99.0
e 37 73 7.0
e 37 243 56.0
e 37 315 16.0
e 37 180 42.0
e 37 312 60.0
e 37 146 88.0
e 37 248 73.0
e 37 113 48.0
e 37 179 20.0
e 37 210 99.0
e 37 264 65.0
e 37 123 76.0
e 37 192 62.0
e 37 118 31.0
e 37 197 41.0
e 37 1 43.0
e 37 43 62.0
e 37 147 23.0
e 37 66 25.0
e 37 166 55.0
e 37 129 5.0
e 37 92 81.0
e 37 263 51.0
e 37 267 65.0
e 37 195 47.0
e 37 235 59.0
e 38 15 5.0
e 39 304 6.0
e 39 177 9.0
e 39 261 16.0
e 39 232 1.0
e 39 180 19.0
e 39 173 13.0
e 39 192 17.0
e 39 254 23.0
e 39 150 36.0
e 39 134 23.0
e 40 173 1.0
e 41 146 2.0
e 41 300 1.0
e 42 313 6.0
e 45 185 1.0
e 45 170 10.0
e 46 19 34.0
e 46 229 2.0
e 47 106 15.0
e 47 229 70.0
e 47 200 94.0
e 47 81 18.0
e 47 263 16.0
e 47 121 34.0
e 47 277 85.0
e 47 231 51.0
e 47 239 95.0
e 47 135 100.0
e 47 42 36.0
e 47 48 73.0
e 47 134 31.0
e 47 15 97.0
e 47 184 20.0
e 47 181 84.0
e 47 31 24.0
e 47 316 49.0
e 47 180 24.0
e 47 280 84.0
e 47 131 19.0
e 47 236 6.0
e 47 182 66.0
e 47 227 16.0
e 47 288 59.0
e 47 232 28.0
e 47 290 16.0
e 47 215 58.0
e 47 202 99.0
e 47 10 33.0
e 47 6 85.0
e 47 272 50.0
e 47 61 78.0
e 47 208 34.0
e 47 93 35.0
e 49 259 4.0
e 49 82 3.0
e 50 276 8.0
e 50 48 5.0
e 50 155 10.0
e 51 106 2.0
e 51 136 8.0
e 51 230 1.0
e 52 186 93.0
e 52 216 43.0
e 52 190 27.0
e 52 90 4.0
e 52 10 35.0
e 52 121 12.0
e 52 284 50.0
e 52 67 83.0
e 52 94 81.0
e 52 305 13.0
e 52 9 8.0
e 52 53 42.0
e 52 124 14.0
e 52 209 87.0
e 52 138 61.0
e 52 174 94.0
e 52 192 57.0
e 52 95 85.0
e 52 304 61.0
e 52 188 26.0
e 52 68 66.0
e 52 187 43.0
e 52 106 63.0
e 52 204 12.0
e 52 279 9.0
e 52 203 27.0
e 52 272 70.0
e 52 4 84.0
e 52 301 15.0
e 52 257 75.0
e 52 233 39.0
e 52 230 10.0
e 52 222 63.0
e 52 104 88.0
e 52 217 56.0
e 54 182 2.0
e 55 310 70.0
e 55 107 37.0
e 55 208 3.0
e 55 242 27.0
e 55 54 27.0
e 55 69 36.0
e 55 239 29.0
e 55 305 2.0
e 55 0 19.0
e 55 237 29.0
e 55 134 71.0
e 55 193 100.0
e 55 286 73.0
e 55 25 75.0
e 55 1 35.0
e 55 115 76.0
e 55 68 35.0
e 55 133 79.0
e 55 293 27.0
e 55 181 92.0
e 55 101 11.0
e 55 218 3.0
e 55 135 85.0
e 55 57 53.0
e 55 227 95.0
e 55 233 37.0
e 55 151 91.0
e 55 183 88.0
e 55 34 83.0
e 55 234 72.0
e 55 311 74.0
e 55 279 52.0
e 55 192 1.0
e 55 295 47.0
e 55 126 36.0
e 55 175 83.0
e 56 84 2.0
e 58 26 6.0
e 58 256 2.0
e 58 80 3.0
e 59 215 10.0
e 59 200 3.0
e 60 232 24.0
e 60 218 27.0
e 60 152 48.0
e 60 70 24.0
e 60 82 29.0
e 60 286 76.0
e 60 200 99.0
e 60 240 70.0
e 60 238 72.0
e 60 272 2.0
e 60 230 70.0
e 60 120 42.0
e 60 61 27.0
e 60 114 74.0
e 60 23 46.0
e 60 268 91.0
e 60 281 60.0
e 60 118 27.0
e 60 253 97.0
e 60 307 62.0
e 60 156 37.0
e 60 1 13.0
e 60 297 84.0
e 60 155 21.0
e 60 184 65.0
e 60 51 47.0
e 60 62 82.0
e 60 26 58.0
e 60 244 14.0
e 60 170 73.0
e 60 189 54.0
e 60 313 41.0
e 60 266 33.0
e 60 22 11.0
e 60 169 24.0
e 60 308 60.0
e 61 287 10.0
e 61 262 10.0
e 62 158 2.0
e 63 8 1.0
e 64 28 2.0
e 64 264 3.0
e 64 295 28.0
e 65 285 10.0
e 65 162 7.0
e 65 130 23.0
e 65 48 21.0
e 65 203 1.0
e 65 207 10.0
e 65 279 17.0
e 65 22 16.0
e 65 166 6.0
e 66 262 12.0
e 66 244 16.0
e 66 253 1.0
e 66 307 23.0
e 66 277 24.0
e 66 313 10.0
e 66 60 8.0
e 66 167 6.0
e 66 152 18.0
e 67 169 3.0
e 67 6 1.0
e 69 259 6.0
e 70 106 9.0
e 70 93 1.0
e 70 252 2.0
e 71 307 1.0
e 71 36 2.0
e 72 307 3.0
e 72 220 11.0
e 72 195 2.0
e 72 175 8.0
e 72 234 5.0
e 73 34 1.0
e 74 306 6.0
e 74 87 2.0
e 74 91 5.0
e 74 282 30.0
e 74 211 22.0
e 74 247 23.0
e 74 263 3.0
e 74 163 1.0
e 74 9 3.0
e 76 56 1.0
e 76 202 1.0
e 77 226 1.0
e 77 154 3.0
e 78 149 10.0
e 78 295 13.0
e 78 204 1.0
e 79 107 4.0
e 81 78 1.0
e 81 97 2.0
e 82 202 6.0
e 83 276 18.0
e 83 106 12.0
e 83 141 8.0
e 83 299 15.0
e 83 296 11.0
e 83 126 24.0
e 83 159 19.0
e 83 179 16.0
e 83 212 7.0
e 83 55 97.0
e 84 254 4.0
e 84 167 2.0
e 84 27 6.0
e 84 94 18.0
e 85 178 3.0
e 85 274 5.0
e 86 11 16.0
e 86 69 1.0
e 87 198 2.0
e 88 228 3.0
e 88 254 9.0
e 88 224 2.0
e 89 207 4.0
e 89 146 3.0
e 89 235 2.0
e 92 51 46.0
e 92 57 37.0
e 92 50 41.0
e 92 219 33.0
e 92 147 50.0
e 92 162 49.0
e 92 12 22.0
e 92 269 71.0
e 92 80 92.0
e 92 159 20.0
e 92 161 74.0
e 92 22 75.0
e 92 117 17.0
e 92 289 11.0
e 92 178 36.0
e 92 230 60.0
e 92 270 29.0
e 92 101 46.0
e 92 40 8.0
e 92 72 77.0
e 92 196 84.0
e 92 8 90.0
e 92 79 23.0
e 92 89 70.0
e 92 119 79.0
e 92 81 16.0
e 92 10 10.0
e 92 239 87.0
e 92 318 100.0
e 92 9 64.0
e 92 69 70.0
e 92 234 28.0
e 92 73 34.0
e 92 70 7.0
e 92 55 40.0
e 92 82 88.0
e 94 47 94.0
e 94 308 34.0
e 94 69 18.0
e 94 77 1.0
e 94 318 12.0
e 94 53 4.0
e 94 172 9.0
e 96 146 3.0
e 96 115 10.0
e 96 59 12.0
e 96 97 9.0
e 96 271 6.0
e 98 166 3.0
e 98 36 4.0
e 98 55 89.0
e 99 304 3.0
e 99 120 4.0
e 100 77 21.0
e 100 206 21.0
e 100 142 8.0
e 100 226 6.0
e 100 306 12.0
e 100 244 21.0
e 100 275 8.0
e 100 262 21.0
e 100 317 20.0
e 100 318 1.0
e 101 222 17.0
e 101 9 15.0
e 101 125 2.0
e 101 16 4.0
e 101 310 9.0
e 101 66 17.0
e 101 44 19.0
e 101 176 10.0
e 102 92 32.0
e 102 189 4.0
e 102 318 5.0
e 102 38 6.0
e 103 49 2.0
e 104 262 3.0
e 105 298 3.0
e 107 184 8.0
e 107 76 2.0
e 107 206 1.0
e 108 8 5.0
e 108 9 1.0
e 108 130 10.0
e 109 0 3.0
e 110 165 11.0
e 110 318 6.0
e 110 64 1.0
e 110 58 1.0
e 110 149 77.0
e 111 211 1.0
e 113 92 81.0
e 113 221 4.0
e 113 216 7.0
e 113 115 17.0
e 113 195 12.0
e 113 45 12.0
e 113 165 10.0
e 113 213 4.0
e 113 252 8.0
e 114 5 2.0
e 116 71 1.0
e 116 37 68.0
e 116 173 1.0
e 117 44 2.0
e 121 6 14.0
e 121 318 2.0
e 121 303 86.0
e 121 40 3.0
e 121 102 18.0
e 121 56 33.0
e 121 123 52.0
e 121 133 35.0
e 121 31 42.0
e 121 93 5.0
e 121 142 45.0
e 121 283 11.0
e 121 248 19.0
e 121 128 28.0
e 121 163 41.0
e 121 63 32.0
e 122 316 6.0
e 122 288 1.0
e 123 318 33.0
e 123 226 78.0
e 123 161 99.0
e 123 38 89.0
e 123 97 44.0
e 123 150 25.0
e 123 225 17.0
e 123 87 14.0
e 123 53 7.0
e 123 5 19.0
e 123 152 35.0
e 123 47 67.0
e 123 182 40.0
e 123 290 23.0
e 123 118 17.0
e 123 212 37.0
e 123 74 82.0
e 123 91 21.0
e 123 84 3.0
e 123 196 90.0
e 123 315 96.0
e 123 89 20.0
e 123 25 89.0
e 123 257 32.0
e 123 54 65.0
e 123 32 22.0
e 123 183 26.0
e 123 224 29.0
e 123 214 94.0
e 123 98 88.0
e 123 22 57.0
e 123 120 77.0
e 123 39 22.0
e 123 282 31.0
e 127 234 1.0
e 127 292 2.0
e 128 53 4.0
e 128 198 3.0
e 130 155 11.0
e 130 229 10.0
e 130 93 2.0
e 131 198 1.0
e 131 149 12.0
e 132 267 2.0
e 135 204 12.0
e 135 35 1.0
e 136 18 9.0
e 136 214 7.0
e 136 230 12.0
e 137 209 5.0
e 137 270 1.0
e 138 226 1.0
e 138 250 3.0
e 138 173 3.0
e 138 26 8.0
e 139 214 2.0
e 140 129 8.0
e 140 76 14.0
e 140 98 22.0
e 140 208 31.0
e 140 171 14.0
e 140 46 14.0
e 140 179 7.0
e 140 31 5.0
e 140 28 12.0
e 140 242 5.0
e 141 248 10.0
e 142 66 11.0
e 143 223 9.0
e 143 289 2.0
e 143 69 12.0
e 143 118 3.0
e 143 230 3.0
e 144 161 68.0
e 144 296 94.0
e 144 311 64.0
e 144 43 68.0
e 144 137 47.0
e 144 223 27.0
e 144 193 97.0
e 144 17 6.0
e 144 286 43.0
e 144 82 39.0
e 144 112 73.0
e 144 42 97.0
e 144 95 9.0
e 144 140 96.0
e 144 240 93.0
e 144 270 90.0
e 144 308 91.0
e 144 189 89.0
e 144 27 22.0
e 144 51 32.0
e 144 134 92.0
e 144 45 85.0
e 144 89 11.0
e 144 81 78.0
e 144 149 85.0
e 144 204 38.0
e 144 229 5.0
e 144 243 5.0
e 144 73 92.0
e 144 28 59.0
e 144 121 82.0
e 144 227 19.0
e 144 271 3.0
e 144 291 70.0
e 144 279 86.0
e 144 316 91.0
e 144 205 53.0
e 145 257 11.0
e 145 107 6.0
e 145 185 4.0
e 145 98 2.0
e 145 205 4.0
e 148 162 8.0
e 148 265 10.0
e 148 18 1.0
e 148 233 9.0
e 148 64 6.0
e 149 153 12.0
e 149 230 11.0
e 149 152 86.0
e 149 35 78.0
e 149 82 11.0
e 149 264 34.0
e 149 81 22.0
e 149 63 59.0
e 149 277 87.0
e 149 36 95.0
e 149 68 57.0
e 149 99 39.0
e 149 88 64.0
e 149 109 32.0
e 149 34 87.0
e 149 189 44.0
e 149 207 44.0
e 149 95 98.0
e 149 29 12.0
e 149 159 73.0
e 149 65 44.0
e 149 288 65.0
e 149 212 13.0
e 149 317 36.0
e 149 96 92.0
e 149 214 24.0
e 149 265 77.0
e 149 134 33.0
e 149 19 96.0
e 149 13 73.0
e 149 233 87.0
e 150 277 30.0
e 150 111 28.0
e 150 31 21.0
e 150 166 39.0
e 150 194 30.0
e 150 135 90.0
e 150 1 77.0
e 150 80 64.0
e 150 8 9.0
e 150 162 46.0
e 150 182 10.0
e 150 204 68.0
e 150 229 2.0
e 150 95 62.0
e 150 298 87.0
e 150 96 80.0
e 150 278 86.0
e 150 262 35.0
e 150 280 9.0
e 150 146 91.0
e 150 73 66.0
e 150 0 20.0
e 150 163 42.0
e 150 126 52.0
e 150 38 20.0
e 150 216 85.0
e 150 171 96.0
e 150 79 93.0
e 150 195 36.0
e 150 263 3.0
e 150 289 91.0
e 150 267 24.0
e 150 7 11.0
e 151 193 14.0
e 153 19 25.0
e 155 221 6.0
e 157 19 2.0
e 157 167 3.0
e 157 230 6.0
e 158 103 1.0
e 158 261 10.0
e 160 12 1.0
e 160 109 6.0
e 161 279 4.0
e 161 302 2.0
e 164 72 5.0
e 164 26 19.0
e 165 308 100.0
e 168 219 3.0
e 170 208 94.0
e 170 95 11.0
e 172 46 2.0
e 174 42 3.0
e 174 248 2.0
e 174 214 1.0
e 174 0 2.0
e 176 184 1.0
e 176 213 7.0
e 176 205 7.0
e 177 32 1.0
e 178 169 5.0
e 179 289 5.0
e 179 232 1.0
e 179 16 2.0
e 179 82 21.0
e 179 78 21.0
e 179 154 4.0
e 179 246 22.0
e 186 120 1.0
e 186 47 1.0
e 187 263 12.0
e 187 200 3.0
e 188 140 14.0
e 188 56 1.0
e 189 235 3.0
e 190 95 1.0
e 193 198 60.0
e 193 114 98.0
e 193 191 63.0
e 193 129 17.0
e 193 150 1.0
e 193 296 24.0
e 193 68 68.0
e 193 206 40.0
e 193 65 54.0
e 193 0 54.0
e 193 120 63.0
e 193 179 97.0
e 193 12 75.0
e 193 281 92.0
e 193 152 50.0
e 193 242 18.0
e 193 208 55.0
e 193 106 59.0
e 193 243 75.0
e 193 44 44.0
e 193 240 63.0
e 193 26 28.0
e 193 70 70.0
e 193 98 49.0
e 193 13 67.0
e 193 186 37.0
e 193 128 27.0
e 193 273 90.0
e 193 15 14.0
e 193 215 75.0
e 193 50 65.0
e 193 287 12.0
e 193 297 56.0
e 193 88 70.0
e 194 109 3.0
e 196 22 9.0
e 197 83 18.0
e 199 160 12.0
e 199 171 2.0
e 199 267 4.0
e 199 257 8.0
e 199 179 4.0
e 201 214 69.0
e 201 37 94.0
e 201 34 65.0
e 201 307 91.0
e 201 187 51.0
e 201 202 82.0
e 201 151 20.0
e 201 87 95.0
e 201 156 48.0
e 201 221 65.0
e 201 16 67.0
e 201 43 38.0
e 201 154 54.0
e 201 2 44.0
e 201 80 32.0
e 201 57 76.0
e 201 315 2.0
e 201 109 63.0
e 201 26 67.0
e 201 139 20.0
e 201 233 35.0
e 201 158 74.0
e 201 271 90.0
e 201 290 12.0
e 201 245 3.0
e 201 62 30.0
e 201 122 7.0
e 201 295 32.0
e 201 9 8.0
e 201 110 40.0
e 201 128 9.0
e 201 138 78.0
e 201 88 3.0
e 201 203 37.0
e 201 254 32.0
e 201 50 26.0
e 201 140 82.0
e 203 17 5.0
e 203 119 9.0
e 203 73 23.0
e 203 145 11.0
e 203 207 17.0
e 203 268 13.0
e 203 176 20.0
e 207 244 9.0
e 207 19 20.0
e 207 22 15.0
e 207 82 9.0
e 207 237 15.0
e 207 182 18.0
e 208 165 10.0
e 208 280 24.0
e 208 306 94.0
e 208 52 39.0
e 208 120 2.0
e 208 231 78.0
e 208 49 8.0
e 208 57 67.0
e 208 145 14.0
e 208 1 98.0
e 208 202 10.0
e 208 247 18.0
e 208 146 44.0
e 208 34 91.0
e 208 114 17.0
e 208 223 79.0
e 208 296 44.0
e 208 115 55.0
e 208 101 18.0
e 208 76 81.0
e 208 224 81.0
e 208 73 16.0
e 208 317 65.0
e 208 250 94.0
e 208 86 40.0
e 208 298 13.0
e 208 225 37.0
e 208 171 25.0
e 208 176 35.0
e 208 116 26.0
e 208 189 67.0
e 208 314 51.0
e 209 13 3.0
e 215 87 6.0
e 217 275 8.0
e 217 24 12.0
e 217 204 10.0
e 217 200 5.0
e 217 2 5.0
e 217 246 23.0
e 217 146 7.0
e 217 271 17.0
e 220 17 3.0
e 228 187 1.0
e 232 109 13.0
e 232 211 9.0
e 232 302 17.0
e 232 2 16.0
e 232 267 7.0
e 232 135 22.0
e 236 122 77.0
e 236 289 13.0
e 236 106 99.0
e 236 107 99.0
e 236 37 54.0
e 236 193 48.0
e 236 76 87.0
e 236 77 74.0
e 236 269 32.0
e 236 237 50.0
e 236 273 64.0
e 236 127 4.0
e 236 118 73.0
e 236 249 43.0
e 236 210 55.0
e 236 99 25.0
e 236 0 13.0
e 236 279 71.0
e 236 216 67.0
e 236 108 95.0
e 236 52 34.0
e 236 109 9.0
e 236 32 18.0
e 236 72 73.0
e 236 252 24.0
e 236 62 97.0
e 236 231 47.0
e 236 301 58.0
e 236 270 84.0
e 236 266 67.0
e 236 251 10.0
e 236 292 82.0
e 236 78 58.0
e 238 227 49.0
e 238 167 17.0
e 238 281 2.0
e 238 94 38.0
e 238 282 11.0
e 238 296 35.0
e 238 123 25.0
e 238 12 26.0
e 238 200 38.0
e 238 13 46.0
e 238 68 31.0
e 238 193 19.0
e 238 109 38.0
e 238 116 22.0
e 238 317 28.0
e 238 5 20.0
e 238 240 49.0
e 238 153 43.0
e 241 33 4.0
e 241 253 8.0
e 241 80 11.0
e 241 75 5.0
e 241 24 2.0
e 245 15 11.0
e 245 218 9.0
e 245 309 7.0
e 245 11 21.0
e 247 267 5.0
e 247 316 11.0
e 248 81 48.0
e 248 142 3.0
e 248 284 4.0
e 248 205 21.0
e 248 277 35.0
e 248 83 32.0
e 248 133 32.0
e 248 310 9.0
e 248 199 35.0
e 248 35 37.0
e 248 12 24.0
e 248 262 24.0
e 248 56 10.0
e 248 288 7.0
e 248 311 10.0
e 249 220 4.0
e 250 168 1.0
e 250 224 3.0
e 250 41 4.0
e 251 245 1.0
e 255 214 1.0
e 255 180 1.0
e 256 111 6.0
e 256 251 6.0
e 258 76 1.0
e 258 200 1.0
e 258 139 4.0
e 259 239 1.0
e 259 314 2.0
e 259 173 10.0
e 260 224 6.0
e 260 144 78.0
e 260 301 5.0
e 261 32 1.0
e 261 275 8.0
e 261 54 4.0
e 269 64 4.0
e 272 169 1.0
e 272 195 13.0
e 272 23 3.0
e 272 133 3.0
e 272 61 5.0
e 272 122 22.0
e 272 126 17.0
e 274 248 11.0
e 274 99 1.0
e 275 117 1.0
e 278 73 2.0
e 279 316 5.0
e 279 317 11.0
e 279 32 7.0
e 279 170 1.0
e 280 32 7.0
e 280 315 35.0
e 282 133 68.0
e 282 226 40.0
e 282 54 30.0
e 282 127 7.0
e 282 178 12.0
e 282 303 33.0
e 282 250 73.0
e 282 43 49.0
e 282 84 86.0
e 282 39 39.0
e 282 116 7.0
e 282 276 89.0
e 282 40 96.0
e 282 251 31.0
e 282 209 84.0
e 282 273 75.0
e 282 70 6.0
e 282 75 25.0
e 282 182 83.0
e 282 294 54.0
e 282 59 60.0
e 282 295 58.0
e 282 73 67.0
e 282 99 79.0
e 282 306 41.0
e 282 170 84.0
e 282 296 46.0
e 282 174 2.0
e 282 252 54.0
e 282 151 91.0
e 282 38 16.0
e 282 302 2.0
e 282 199 89.0
e 282 317 9.0
e 285 256 18.0
e 285 27 23.0
e 285 17 19.0
e 285 263 16.0
e 285 165 20.0
e 285 183 14.0
e 285 282 15.0
e 285 194 22.0
e 285 148 6.0
e 291 132 56.0
e 291 42 87.0
e 291 294 20.0
e 291 88 67.0
e 291 138 65.0
e 291 226 70.0
e 291 230 19.0
e 291 29 12.0
e 291 1 1.0
e 291 168 44.0
e 291 297 83.0
e 291 289 74.0
e 291 47 28.0
e 291 199 56.0
e 291 217 52.0
e 291 317 78.0
e 291 39 88.0
e 291 179 44.0
e 291 249 45.0
e 291 122 18.0
e 291 123 2.0
e 291 215 52.0
e 291 237 25.0
e 291 159 14.0
e 291 10 83.0
e 291 172 68.0
e 291 207 8.0
e 291 266 77.0
e 291 5 91.0
e 291 186 42.0
e 291 255 18.0
e 291 154 42.0
e 291 70 46.0
e 291 208 45.0
e 291 180 53.0
e 291 267 8.0
e 292 84 11.0
e 293 109 11.0
e 293 234 21.0
e 293 193 74.0
e 293 79 15.0
e 293 25 8.0
e 293 307 25.0
e 293 283 7.0
e 293 110 24.0
e 293 296 13.0
e 295 14 38.0
e 295 232 6.0
e 295 32 17.0
e 295 83 45.0
e 295 79 2.0
e 295 121 22.0
e 295 256 14.0
e 295 142 34.0
e 295 22 23.0
e 295 189 14.0
e 295 179 17.0
e 295 98 40.0
e 295 137 35.0
e 295 229 19.0
e 297 137 7.0
e 297 225 45.0
e 297 138 39.0
e 297 269 41.0
e 297 130 7.0
e 297 243 13.0
e 297 97 7.0
e 297 58 43.0
e 297 135 17.0
e 297 154 26.0
e 297 44 1.0
e 297 151 9.0
e 297 139 26.0
e 297 2 14.0
e 297 15 21.0
e 299 233 1.0
e 300 196 5.0
e 303 63 48.0
e 303 305 40.0
e 303 23 78.0
e 303 85 86.0
e 303 16 46.0
e 303 164 61.0
e 303 156 35.0
e 303 46 66.0
e 303 190 84.0
e 303 292 94.0
e 303 97 44.0
e 303 286 14.0
e 303 90 21.0
e 303 57 83.0
e 303 217 8.0
e 303 213 50.0
e 303 59 8.0
e 303 155 67.0
e 303 98 94.0
e 303 275 81.0
e 303 287 36.0
e 303 8 17.0
e 303 243 37.0
e 303 165 78.0
e 303 102 75.0
e 303 302 88.0
e 303 64 21.0
e 303 2 14.0
e 303 136 80.0
e 303 41 100.0
e 303 166 30.0
e 303 107 31.0
e 303 254 4.0
e 303 35 86.0
e 303 65 98.0
e 305 187 7.0
e 306 152 1.0
e 308 58 84.0
e 308 14 100.0
e 308 49 21.0
e 308 73 54.0
e 308 169 42.0
e 308 154 69.0
e 308 93 55.0
e 308 18 49.0
e 308 19 94.0
e 308 33 81.0
e 308 307 53.0
e 308 206 61.0
e 308 185 23.0
e 308 253 42.0
e 308 270 57.0
e 308 255 29.0
e 308 133 44.0
e 308 236 74.0
e 308 64 7.0
e 308 272 24.0
e 308 32 49.0
e 308 117 28.0
e 308 59 74.0
e 308 55 100.0
e 308 178 82.0
e 308 201 36.0
e 308 129 13.0
e 308 61 76.0
e 308 68 86.0
e 308 76 35.0
e 308 171 100.0
e 308 231 53.0
e 308 305 93.0
e 311 312 3.0
e 311 27 40.0
e 313 5 3.0
e 313 41 7.0
e 315 171 5.0
e 315 27 60.0
e 315 66 53.0
e 315 68 29.0
e 315 286 46.0
e 315 230 66.0
e 315 50 31.0
e 315 259 5.0
e 315 266 2.0
e 315 34 15.0
e 315 46 66.0
e 315 127 98.0
e 315 294 59.0
e 315 235 23.0
e 315 17 53.0
e 315 108 31.0
e 315 311 78.0
e 315 94 55.0
e 315 237 22.0
e 315 60 49.0
e 315 133 7.0
e 315 189 29.0
e 315 48 90.0
e 315 117 37.0
e 315 253 54.0
e 315 12 65.0
e 315 142 58.0
e 315 128 48.0
e 315 251 38.0
e 315 74 2.0
e 315 134 67.0
e 315 314 64.0
e 315 72 82.0
e 318 297 42.0
e 319 97 2.0
e 319 129 1.0
